67550
0 0 1 0 1 0 1 0 0 0 1 0 0 1 1 0 1 1 1 0 0 0 0 1 1 0 0 0 1 1 
24 28 17 2 10 4 6 24 28 10 10 13 18 6 6 28 29 2 16 16 23 17 28 2 10 6 18 16 29 16 28 4 10 2 13 4 4 17 18 2 2 10 24 29 10 10 16 2 10 10 2 17 23 18 13 6 16 10 17 17 13 14 16 10 24 24 29 16 28 18 24 4 29 4 18 17 28 23 14 18 10 16 6 13 6 28 24 23 23 16 13 14 16 17 24 13 18 14 29 16 13 2 18 6 10 2 29 10 23 29 6 4 28 24 18 4 14 13 16 17 17 18 16 29 4 18 14 4 18 2 24 18 4 14 13 6 2 13 17 17 29 2 17 16 28 23 2 6 16 4 10 13 23 24 10 6 18 13 13 13 13 13 17 2 14 28 10 4 2 18 2 17 13 23 24 23 24 24 29 2 16 29 18 4 23 23 6 24 29 16 16 24 17 13 28 16 24 24 29 14 
